WARNING: for repeatability, setting FPU to use double precision
============================[ Problem Statistics ]=============================
|                                                                             |
|  Number of variables:            50                                         |
|  Number of clauses:             218                                         |
|  Parse time:                   0.00 s                                       |
|                                                                             |
============================[ Search Statistics ]==============================
| Conflicts |          ORIGINAL         |          LEARNT          | Progress |
|           |    Vars  Clauses Literals |    Limit  Clauses Lit/Cl |          |
===============================================================================
===============================================================================
restarts              : 1
conflicts             : 67             (45179 /sec)
decisions             : 73             (0.00 % random) (49225 /sec)
propagations          : 824            (555630 /sec)
conflict literals     : 245            (16.38 % deleted)
Memory used           : 20.00 MB
CPU time              : 0.001483 s

UNSATISFIABLE
